223 165
396 93
269 39
670 347
187 275
60 221
461 176
315 484
169 439
61 376
615 331
316 139
225 451
626 259
143 187
544 142
398 97
271 396
125 351
189 279
571 243
272 51
317 488
171 443
572 398
617 188
471 143
344 89
100 254
145 191
546 146
419 445
273 400
127 355
0 301
573 100
427 55
319 492
364 282
409 219
683 120
556 419
601 356
311 76
356 366
401 303
274 249
338 30
574 449
109 19
1 309
173 300
46 246
110 174
155 464
219 392
92 338
665 137
10 74
564 29
265 484
119 292
228 157
338 30
593 440
466 239
683 167
575 104
429 59
474 349
347 295
411 223
375 51
439 332
185 224
21 343
576 306
495 344
350 454
377 408
104 309
342 38
451 256
541 483
79 212
697 448
316 139
342 85
534 222
662 431
370 341
625 104
498 50
435 424
652 205
398 97
362 425
135 271
581 16
117 435
